; benchmark generated from python API
(set-info :status unknown)
(declare-fun cell_1_1 () Int)
(declare-fun cell_2_1 () Int)
(declare-fun cell_3_1 () Int)
(declare-fun cell_4_1 () Int)
(declare-fun cell_5_1 () Int)
(declare-fun cell_6_1 () Int)
(declare-fun cell_7_1 () Int)
(declare-fun cell_8_1 () Int)
(declare-fun cell_9_1 () Int)
(declare-fun cell_1_2 () Int)
(declare-fun cell_2_2 () Int)
(declare-fun cell_3_2 () Int)
(declare-fun cell_4_2 () Int)
(declare-fun cell_5_2 () Int)
(declare-fun cell_6_2 () Int)
(declare-fun cell_7_2 () Int)
(declare-fun cell_8_2 () Int)
(declare-fun cell_9_2 () Int)
(declare-fun cell_1_3 () Int)
(declare-fun cell_2_3 () Int)
(declare-fun cell_3_3 () Int)
(declare-fun cell_4_3 () Int)
(declare-fun cell_5_3 () Int)
(declare-fun cell_6_3 () Int)
(declare-fun cell_7_3 () Int)
(declare-fun cell_8_3 () Int)
(declare-fun cell_9_3 () Int)
(declare-fun cell_1_4 () Int)
(declare-fun cell_2_4 () Int)
(declare-fun cell_3_4 () Int)
(declare-fun cell_4_4 () Int)
(declare-fun cell_5_4 () Int)
(declare-fun cell_6_4 () Int)
(declare-fun cell_7_4 () Int)
(declare-fun cell_8_4 () Int)
(declare-fun cell_9_4 () Int)
(declare-fun cell_1_5 () Int)
(declare-fun cell_2_5 () Int)
(declare-fun cell_3_5 () Int)
(declare-fun cell_4_5 () Int)
(declare-fun cell_5_5 () Int)
(declare-fun cell_6_5 () Int)
(declare-fun cell_7_5 () Int)
(declare-fun cell_8_5 () Int)
(declare-fun cell_9_5 () Int)
(declare-fun cell_1_6 () Int)
(declare-fun cell_2_6 () Int)
(declare-fun cell_3_6 () Int)
(declare-fun cell_4_6 () Int)
(declare-fun cell_5_6 () Int)
(declare-fun cell_6_6 () Int)
(declare-fun cell_7_6 () Int)
(declare-fun cell_8_6 () Int)
(declare-fun cell_9_6 () Int)
(declare-fun cell_1_7 () Int)
(declare-fun cell_2_7 () Int)
(declare-fun cell_3_7 () Int)
(declare-fun cell_4_7 () Int)
(declare-fun cell_5_7 () Int)
(declare-fun cell_6_7 () Int)
(declare-fun cell_7_7 () Int)
(declare-fun cell_8_7 () Int)
(declare-fun cell_9_7 () Int)
(declare-fun cell_1_8 () Int)
(declare-fun cell_2_8 () Int)
(declare-fun cell_3_8 () Int)
(declare-fun cell_4_8 () Int)
(declare-fun cell_5_8 () Int)
(declare-fun cell_6_8 () Int)
(declare-fun cell_7_8 () Int)
(declare-fun cell_8_8 () Int)
(declare-fun cell_9_8 () Int)
(declare-fun cell_1_9 () Int)
(declare-fun cell_2_9 () Int)
(declare-fun cell_3_9 () Int)
(declare-fun cell_4_9 () Int)
(declare-fun cell_5_9 () Int)
(declare-fun cell_6_9 () Int)
(declare-fun cell_7_9 () Int)
(declare-fun cell_8_9 () Int)
(declare-fun cell_9_9 () Int)
(assert
 (let (($x6259 (= cell_1_1 9)))
 (let (($x7092 (= cell_1_1 8)))
 (let (($x7553 (= cell_1_1 7)))
 (let (($x451 (= cell_1_1 6)))
 (let (($x3277 (= cell_1_1 5)))
 (let (($x9175 (= cell_1_1 4)))
 (let (($x9678 (= cell_1_1 3)))
 (let (($x1986 (= cell_1_1 2)))
 (let (($x9119 (= cell_1_1 1)))
 (or $x9119 $x1986 $x9678 $x9175 $x3277 $x451 $x7553 $x7092 $x6259)))))))))))
(assert
 (let (($x6556 (= cell_2_1 9)))
 (let (($x9241 (= cell_2_1 8)))
 (let (($x3767 (= cell_2_1 7)))
 (let (($x629 (= cell_2_1 6)))
 (let (($x7774 (= cell_2_1 5)))
 (let (($x5065 (= cell_2_1 4)))
 (let (($x8723 (= cell_2_1 3)))
 (let (($x6228 (= cell_2_1 2)))
 (let (($x4156 (= cell_2_1 1)))
 (or $x4156 $x6228 $x8723 $x5065 $x7774 $x629 $x3767 $x9241 $x6556)))))))))))
(assert
 (let (($x2879 (= cell_3_1 9)))
 (let (($x3551 (= cell_3_1 8)))
 (let (($x7671 (= cell_3_1 7)))
 (let (($x6955 (= cell_3_1 6)))
 (let (($x4660 (= cell_3_1 5)))
 (let (($x9503 (= cell_3_1 4)))
 (let (($x5374 (= cell_3_1 3)))
 (let (($x6973 (= cell_3_1 2)))
 (let (($x9121 (= cell_3_1 1)))
 (or $x9121 $x6973 $x5374 $x9503 $x4660 $x6955 $x7671 $x3551 $x2879)))))))))))
(assert
 (let (($x8907 (= cell_4_1 9)))
 (let (($x6062 (= cell_4_1 8)))
 (let (($x6100 (= cell_4_1 7)))
 (let (($x8608 (= cell_4_1 6)))
 (let (($x4523 (= cell_4_1 5)))
 (let (($x2745 (= cell_4_1 4)))
 (let (($x7533 (= cell_4_1 3)))
 (let (($x2189 (= cell_4_1 2)))
 (let (($x4790 (= cell_4_1 1)))
 (or $x4790 $x2189 $x7533 $x2745 $x4523 $x8608 $x6100 $x6062 $x8907)))))))))))
(assert
 (let (($x1756 (= cell_5_1 9)))
 (let (($x5191 (= cell_5_1 8)))
 (let (($x5776 (= cell_5_1 7)))
 (let (($x667 (= cell_5_1 6)))
 (let (($x2307 (= cell_5_1 5)))
 (let (($x3469 (= cell_5_1 4)))
 (let (($x9504 (= cell_5_1 3)))
 (let (($x4475 (= cell_5_1 2)))
 (let (($x5953 (= cell_5_1 1)))
 (or $x5953 $x4475 $x9504 $x3469 $x2307 $x667 $x5776 $x5191 $x1756)))))))))))
(assert
 (let (($x641 (= cell_6_1 9)))
 (let (($x7035 (= cell_6_1 8)))
 (let (($x9575 (= cell_6_1 7)))
 (let (($x1823 (= cell_6_1 6)))
 (let (($x6876 (= cell_6_1 5)))
 (let (($x766 (= cell_6_1 4)))
 (let (($x6811 (= cell_6_1 3)))
 (let (($x5344 (= cell_6_1 2)))
 (let (($x8248 (= cell_6_1 1)))
 (or $x8248 $x5344 $x6811 $x766 $x6876 $x1823 $x9575 $x7035 $x641)))))))))))
(assert
 (let (($x6986 (= cell_7_1 9)))
 (let (($x230 (= cell_7_1 8)))
 (let (($x7933 (= cell_7_1 7)))
 (let (($x1551 (= cell_7_1 6)))
 (let (($x9526 (= cell_7_1 5)))
 (let (($x2558 (= cell_7_1 4)))
 (let (($x2771 (= cell_7_1 3)))
 (let (($x8706 (= cell_7_1 2)))
 (let (($x7365 (= cell_7_1 1)))
 (or $x7365 $x8706 $x2771 $x2558 $x9526 $x1551 $x7933 $x230 $x6986)))))))))))
(assert
 (let (($x241 (= cell_8_1 9)))
 (let (($x1042 (= cell_8_1 8)))
 (let (($x995 (= cell_8_1 7)))
 (let (($x8492 (= cell_8_1 6)))
 (let (($x9682 (= cell_8_1 5)))
 (let (($x3078 (= cell_8_1 4)))
 (let (($x4933 (= cell_8_1 3)))
 (let (($x2709 (= cell_8_1 2)))
 (let (($x4771 (= cell_8_1 1)))
 (or $x4771 $x2709 $x4933 $x3078 $x9682 $x8492 $x995 $x1042 $x241)))))))))))
(assert
 (let (($x7793 (= cell_9_1 9)))
 (let (($x3797 (= cell_9_1 8)))
 (let (($x831 (= cell_9_1 7)))
 (let (($x1662 (= cell_9_1 6)))
 (let (($x6690 (= cell_9_1 5)))
 (let (($x180 (= cell_9_1 4)))
 (let (($x10015 (= cell_9_1 3)))
 (let (($x4639 (= cell_9_1 2)))
 (let (($x9078 (= cell_9_1 1)))
 (or $x9078 $x4639 $x10015 $x180 $x6690 $x1662 $x831 $x3797 $x7793)))))))))))
(assert
 (let (($x2920 (= cell_1_2 9)))
 (let (($x3706 (= cell_1_2 8)))
 (let (($x5086 (= cell_1_2 7)))
 (let (($x3155 (= cell_1_2 6)))
 (let (($x8754 (= cell_1_2 5)))
 (let (($x9466 (= cell_1_2 4)))
 (let (($x1225 (= cell_1_2 3)))
 (let (($x9654 (= cell_1_2 2)))
 (let (($x8610 (= cell_1_2 1)))
 (or $x8610 $x9654 $x1225 $x9466 $x8754 $x3155 $x5086 $x3706 $x2920)))))))))))
(assert
 (let (($x7233 (= cell_2_2 9)))
 (let (($x4171 (= cell_2_2 8)))
 (let (($x7499 (= cell_2_2 7)))
 (let (($x2535 (= cell_2_2 6)))
 (let (($x3854 (= cell_2_2 5)))
 (let (($x1630 (= cell_2_2 4)))
 (let (($x4259 (= cell_2_2 3)))
 (let (($x790 (= cell_2_2 2)))
 (let (($x1651 (= cell_2_2 1)))
 (or $x1651 $x790 $x4259 $x1630 $x3854 $x2535 $x7499 $x4171 $x7233)))))))))))
(assert
 (let (($x518 (= cell_3_2 9)))
 (let (($x2049 (= cell_3_2 8)))
 (let (($x1060 (= cell_3_2 7)))
 (let (($x5326 (= cell_3_2 6)))
 (let (($x9868 (= cell_3_2 5)))
 (let (($x4431 (= cell_3_2 4)))
 (let (($x6474 (= cell_3_2 3)))
 (let (($x10205 (= cell_3_2 2)))
 (let (($x3843 (= cell_3_2 1)))
 (or $x3843 $x10205 $x6474 $x4431 $x9868 $x5326 $x1060 $x2049 $x518)))))))))))
(assert
 (let (($x10119 (= cell_4_2 9)))
 (let (($x434 (= cell_4_2 8)))
 (let (($x2157 (= cell_4_2 7)))
 (let (($x1846 (= cell_4_2 6)))
 (let (($x7166 (= cell_4_2 5)))
 (let (($x1869 (= cell_4_2 4)))
 (let (($x5667 (= cell_4_2 3)))
 (let (($x7586 (= cell_4_2 2)))
 (let (($x3890 (= cell_4_2 1)))
 (or $x3890 $x7586 $x5667 $x1869 $x7166 $x1846 $x2157 $x434 $x10119)))))))))))
(assert
 (let (($x7416 (= cell_5_2 9)))
 (let (($x6941 (= cell_5_2 8)))
 (let (($x8096 (= cell_5_2 7)))
 (let (($x6040 (= cell_5_2 6)))
 (let (($x6479 (= cell_5_2 5)))
 (let (($x9531 (= cell_5_2 4)))
 (let (($x8986 (= cell_5_2 3)))
 (let (($x9939 (= cell_5_2 2)))
 (let (($x1542 (= cell_5_2 1)))
 (or $x1542 $x9939 $x8986 $x9531 $x6479 $x6040 $x8096 $x6941 $x7416)))))))))))
(assert
 (let (($x2443 (= cell_6_2 9)))
 (let (($x171 (= cell_6_2 8)))
 (let (($x6709 (= cell_6_2 7)))
 (let (($x2616 (= cell_6_2 6)))
 (let (($x8911 (= cell_6_2 5)))
 (let (($x5040 (= cell_6_2 4)))
 (let (($x9728 (= cell_6_2 3)))
 (let (($x7156 (= cell_6_2 2)))
 (let (($x5273 (= cell_6_2 1)))
 (or $x5273 $x7156 $x9728 $x5040 $x8911 $x2616 $x6709 $x171 $x2443)))))))))))
(assert
 (let (($x2526 (= cell_7_2 9)))
 (let (($x7516 (= cell_7_2 8)))
 (let (($x7026 (= cell_7_2 7)))
 (let (($x4463 (= cell_7_2 6)))
 (let (($x735 (= cell_7_2 5)))
 (let (($x6967 (= cell_7_2 4)))
 (let (($x704 (= cell_7_2 3)))
 (let (($x2564 (= cell_7_2 2)))
 (let (($x1375 (= cell_7_2 1)))
 (or $x1375 $x2564 $x704 $x6967 $x735 $x4463 $x7026 $x7516 $x2526)))))))))))
(assert
 (let (($x529 (= cell_8_2 9)))
 (let (($x4939 (= cell_8_2 8)))
 (let (($x400 (= cell_8_2 7)))
 (let (($x7809 (= cell_8_2 6)))
 (let (($x3601 (= cell_8_2 5)))
 (let (($x1727 (= cell_8_2 4)))
 (let (($x3883 (= cell_8_2 3)))
 (let (($x2076 (= cell_8_2 2)))
 (let (($x805 (= cell_8_2 1)))
 (or $x805 $x2076 $x3883 $x1727 $x3601 $x7809 $x400 $x4939 $x529)))))))))))
(assert
 (let (($x8458 (= cell_9_2 9)))
 (let (($x3152 (= cell_9_2 8)))
 (let (($x9510 (= cell_9_2 7)))
 (let (($x7071 (= cell_9_2 6)))
 (let (($x8835 (= cell_9_2 5)))
 (let (($x4040 (= cell_9_2 4)))
 (let (($x10022 (= cell_9_2 3)))
 (let (($x2074 (= cell_9_2 2)))
 (let (($x9242 (= cell_9_2 1)))
 (or $x9242 $x2074 $x10022 $x4040 $x8835 $x7071 $x9510 $x3152 $x8458)))))))))))
(assert
 (let (($x7202 (= cell_1_3 9)))
 (let (($x7269 (= cell_1_3 8)))
 (let (($x7267 (= cell_1_3 7)))
 (let (($x6131 (= cell_1_3 6)))
 (let (($x9548 (= cell_1_3 5)))
 (let (($x5664 (= cell_1_3 4)))
 (let (($x8122 (= cell_1_3 3)))
 (let (($x9474 (= cell_1_3 2)))
 (let (($x9418 (= cell_1_3 1)))
 (or $x9418 $x9474 $x8122 $x5664 $x9548 $x6131 $x7267 $x7269 $x7202)))))))))))
(assert
 (let (($x9304 (= cell_2_3 9)))
 (let (($x6175 (= cell_2_3 8)))
 (let (($x1736 (= cell_2_3 7)))
 (let (($x8348 (= cell_2_3 6)))
 (let (($x570 (= cell_2_3 5)))
 (let (($x6328 (= cell_2_3 4)))
 (let (($x9634 (= cell_2_3 3)))
 (let (($x5773 (= cell_2_3 2)))
 (let (($x6813 (= cell_2_3 1)))
 (or $x6813 $x5773 $x9634 $x6328 $x570 $x8348 $x1736 $x6175 $x9304)))))))))))
(assert
 (let (($x7708 (= cell_3_3 9)))
 (let (($x4334 (= cell_3_3 8)))
 (let (($x9179 (= cell_3_3 7)))
 (let (($x5439 (= cell_3_3 6)))
 (let (($x1334 (= cell_3_3 5)))
 (let (($x8746 (= cell_3_3 4)))
 (let (($x10209 (= cell_3_3 3)))
 (let (($x8388 (= cell_3_3 2)))
 (let (($x1547 (= cell_3_3 1)))
 (or $x1547 $x8388 $x10209 $x8746 $x1334 $x5439 $x9179 $x4334 $x7708)))))))))))
(assert
 (let (($x8171 (= cell_4_3 9)))
 (let (($x5240 (= cell_4_3 8)))
 (let (($x7590 (= cell_4_3 7)))
 (let (($x4166 (= cell_4_3 6)))
 (let (($x3957 (= cell_4_3 5)))
 (let (($x6241 (= cell_4_3 4)))
 (let (($x6278 (= cell_4_3 3)))
 (let (($x1674 (= cell_4_3 2)))
 (let (($x4669 (= cell_4_3 1)))
 (or $x4669 $x1674 $x6278 $x6241 $x3957 $x4166 $x7590 $x5240 $x8171)))))))))))
(assert
 (let (($x5619 (= cell_5_3 9)))
 (let (($x1791 (= cell_5_3 8)))
 (let (($x8790 (= cell_5_3 7)))
 (let (($x3326 (= cell_5_3 6)))
 (let (($x609 (= cell_5_3 5)))
 (let (($x4335 (= cell_5_3 4)))
 (let (($x1611 (= cell_5_3 3)))
 (let (($x8691 (= cell_5_3 2)))
 (let (($x7732 (= cell_5_3 1)))
 (or $x7732 $x8691 $x1611 $x4335 $x609 $x3326 $x8790 $x1791 $x5619)))))))))))
(assert
 (let (($x7101 (= cell_6_3 9)))
 (let (($x3348 (= cell_6_3 8)))
 (let (($x3399 (= cell_6_3 7)))
 (let (($x73 (= cell_6_3 6)))
 (let (($x10257 (= cell_6_3 5)))
 (let (($x194 (= cell_6_3 4)))
 (let (($x8325 (= cell_6_3 3)))
 (let (($x9019 (= cell_6_3 2)))
 (let (($x7147 (= cell_6_3 1)))
 (or $x7147 $x9019 $x8325 $x194 $x10257 $x73 $x3399 $x3348 $x7101)))))))))))
(assert
 (let (($x9323 (= cell_7_3 9)))
 (let (($x577 (= cell_7_3 8)))
 (let (($x7724 (= cell_7_3 7)))
 (let (($x8034 (= cell_7_3 6)))
 (let (($x308 (= cell_7_3 5)))
 (let (($x1919 (= cell_7_3 4)))
 (let (($x6844 (= cell_7_3 3)))
 (let (($x9192 (= cell_7_3 2)))
 (let (($x6489 (= cell_7_3 1)))
 (or $x6489 $x9192 $x6844 $x1919 $x308 $x8034 $x7724 $x577 $x9323)))))))))))
(assert
 (let (($x2114 (= cell_8_3 9)))
 (let (($x4529 (= cell_8_3 8)))
 (let (($x8634 (= cell_8_3 7)))
 (let (($x9802 (= cell_8_3 6)))
 (let (($x4749 (= cell_8_3 5)))
 (let (($x3522 (= cell_8_3 4)))
 (let (($x6663 (= cell_8_3 3)))
 (let (($x2957 (= cell_8_3 2)))
 (let (($x2959 (= cell_8_3 1)))
 (or $x2959 $x2957 $x6663 $x3522 $x4749 $x9802 $x8634 $x4529 $x2114)))))))))))
(assert
 (let (($x5644 (= cell_9_3 9)))
 (let (($x80 (= cell_9_3 8)))
 (let (($x5496 (= cell_9_3 7)))
 (let (($x8926 (= cell_9_3 6)))
 (let (($x5124 (= cell_9_3 5)))
 (let (($x9146 (= cell_9_3 4)))
 (let (($x7817 (= cell_9_3 3)))
 (let (($x4916 (= cell_9_3 2)))
 (let (($x8268 (= cell_9_3 1)))
 (or $x8268 $x4916 $x7817 $x9146 $x5124 $x8926 $x5496 $x80 $x5644)))))))))))
(assert
 (let (($x6871 (= cell_1_4 9)))
 (let (($x10073 (= cell_1_4 8)))
 (let (($x7781 (= cell_1_4 7)))
 (let (($x769 (= cell_1_4 6)))
 (let (($x7331 (= cell_1_4 5)))
 (let (($x3096 (= cell_1_4 4)))
 (let (($x4331 (= cell_1_4 3)))
 (let (($x5003 (= cell_1_4 2)))
 (let (($x2989 (= cell_1_4 1)))
 (or $x2989 $x5003 $x4331 $x3096 $x7331 $x769 $x7781 $x10073 $x6871)))))))))))
(assert
 (let (($x6269 (= cell_2_4 9)))
 (let (($x6717 (= cell_2_4 8)))
 (let (($x8031 (= cell_2_4 7)))
 (let (($x6870 (= cell_2_4 6)))
 (let (($x9224 (= cell_2_4 5)))
 (let (($x3302 (= cell_2_4 4)))
 (let (($x9195 (= cell_2_4 3)))
 (let (($x1040 (= cell_2_4 2)))
 (let (($x980 (= cell_2_4 1)))
 (or $x980 $x1040 $x9195 $x3302 $x9224 $x6870 $x8031 $x6717 $x6269)))))))))))
(assert
 (let (($x6884 (= cell_3_4 9)))
 (let (($x3822 (= cell_3_4 8)))
 (let (($x3029 (= cell_3_4 7)))
 (let (($x1742 (= cell_3_4 6)))
 (let (($x1020 (= cell_3_4 5)))
 (let (($x6775 (= cell_3_4 4)))
 (let (($x947 (= cell_3_4 3)))
 (let (($x8747 (= cell_3_4 2)))
 (let (($x3930 (= cell_3_4 1)))
 (or $x3930 $x8747 $x947 $x6775 $x1020 $x1742 $x3029 $x3822 $x6884)))))))))))
(assert
 (let (($x8586 (= cell_4_4 9)))
 (let (($x1807 (= cell_4_4 8)))
 (let (($x228 (= cell_4_4 7)))
 (let (($x10069 (= cell_4_4 6)))
 (let (($x1838 (= cell_4_4 5)))
 (let (($x6676 (= cell_4_4 4)))
 (let (($x7672 (= cell_4_4 3)))
 (let (($x546 (= cell_4_4 2)))
 (let (($x3978 (= cell_4_4 1)))
 (or $x3978 $x546 $x7672 $x6676 $x1838 $x10069 $x228 $x1807 $x8586)))))))))))
(assert
 (let (($x5615 (= cell_5_4 9)))
 (let (($x3262 (= cell_5_4 8)))
 (let (($x3996 (= cell_5_4 7)))
 (let (($x5779 (= cell_5_4 6)))
 (let (($x9643 (= cell_5_4 5)))
 (let (($x5668 (= cell_5_4 4)))
 (let (($x2802 (= cell_5_4 3)))
 (let (($x2569 (= cell_5_4 2)))
 (let (($x6962 (= cell_5_4 1)))
 (or $x6962 $x2569 $x2802 $x5668 $x9643 $x5779 $x3996 $x3262 $x5615)))))))))))
(assert
 (let (($x10177 (= cell_6_4 9)))
 (let (($x4193 (= cell_6_4 8)))
 (let (($x1103 (= cell_6_4 7)))
 (let (($x8971 (= cell_6_4 6)))
 (let (($x9722 (= cell_6_4 5)))
 (let (($x709 (= cell_6_4 4)))
 (let (($x3965 (= cell_6_4 3)))
 (let (($x1396 (= cell_6_4 2)))
 (let (($x705 (= cell_6_4 1)))
 (or $x705 $x1396 $x3965 $x709 $x9722 $x8971 $x1103 $x4193 $x10177)))))))))))
(assert
 (let (($x3081 (= cell_7_4 9)))
 (let (($x4343 (= cell_7_4 8)))
 (let (($x8778 (= cell_7_4 7)))
 (let (($x4163 (= cell_7_4 6)))
 (let (($x8312 (= cell_7_4 5)))
 (let (($x7863 (= cell_7_4 4)))
 (let (($x9364 (= cell_7_4 3)))
 (let (($x566 (= cell_7_4 2)))
 (let (($x9963 (= cell_7_4 1)))
 (or $x9963 $x566 $x9364 $x7863 $x8312 $x4163 $x8778 $x4343 $x3081)))))))))))
(assert
 (let (($x2796 (= cell_8_4 9)))
 (let (($x4868 (= cell_8_4 8)))
 (let (($x6152 (= cell_8_4 7)))
 (let (($x9409 (= cell_8_4 6)))
 (let (($x9044 (= cell_8_4 5)))
 (let (($x926 (= cell_8_4 4)))
 (let (($x5603 (= cell_8_4 3)))
 (let (($x9062 (= cell_8_4 2)))
 (let (($x5441 (= cell_8_4 1)))
 (or $x5441 $x9062 $x5603 $x926 $x9044 $x9409 $x6152 $x4868 $x2796)))))))))))
(assert
 (let (($x6034 (= cell_9_4 9)))
 (let (($x1631 (= cell_9_4 8)))
 (let (($x3273 (= cell_9_4 7)))
 (let (($x9308 (= cell_9_4 6)))
 (let (($x3099 (= cell_9_4 5)))
 (let (($x9291 (= cell_9_4 4)))
 (let (($x7326 (= cell_9_4 3)))
 (let (($x591 (= cell_9_4 2)))
 (let (($x4018 (= cell_9_4 1)))
 (or $x4018 $x591 $x7326 $x9291 $x3099 $x9308 $x3273 $x1631 $x6034)))))))))))
(assert
 (let (($x7526 (= cell_1_5 9)))
 (let (($x8254 (= cell_1_5 8)))
 (let (($x7138 (= cell_1_5 7)))
 (let (($x5121 (= cell_1_5 6)))
 (let (($x3130 (= cell_1_5 5)))
 (let (($x9708 (= cell_1_5 4)))
 (let (($x7193 (= cell_1_5 3)))
 (let (($x7648 (= cell_1_5 2)))
 (let (($x5591 (= cell_1_5 1)))
 (or $x5591 $x7648 $x7193 $x9708 $x3130 $x5121 $x7138 $x8254 $x7526)))))))))))
(assert
 (let (($x8150 (= cell_2_5 9)))
 (let (($x3513 (= cell_2_5 8)))
 (let (($x7725 (= cell_2_5 7)))
 (let (($x2738 (= cell_2_5 6)))
 (let (($x9229 (= cell_2_5 5)))
 (let (($x5277 (= cell_2_5 4)))
 (let (($x8227 (= cell_2_5 3)))
 (let (($x4095 (= cell_2_5 2)))
 (let (($x3492 (= cell_2_5 1)))
 (or $x3492 $x4095 $x8227 $x5277 $x9229 $x2738 $x7725 $x3513 $x8150)))))))))))
(assert
 (let (($x8055 (= cell_3_5 9)))
 (let (($x9461 (= cell_3_5 8)))
 (let (($x3829 (= cell_3_5 7)))
 (let (($x3337 (= cell_3_5 6)))
 (let (($x2669 (= cell_3_5 5)))
 (let (($x1890 (= cell_3_5 4)))
 (let (($x2560 (= cell_3_5 3)))
 (let (($x10188 (= cell_3_5 2)))
 (let (($x973 (= cell_3_5 1)))
 (or $x973 $x10188 $x2560 $x1890 $x2669 $x3337 $x3829 $x9461 $x8055)))))))))))
(assert
 (let (($x4555 (= cell_4_5 9)))
 (let (($x6890 (= cell_4_5 8)))
 (let (($x7831 (= cell_4_5 7)))
 (let (($x6564 (= cell_4_5 6)))
 (let (($x5929 (= cell_4_5 5)))
 (let (($x7653 (= cell_4_5 4)))
 (let (($x3643 (= cell_4_5 3)))
 (let (($x7050 (= cell_4_5 2)))
 (let (($x9746 (= cell_4_5 1)))
 (or $x9746 $x7050 $x3643 $x7653 $x5929 $x6564 $x7831 $x6890 $x4555)))))))))))
(assert
 (let (($x4754 (= cell_5_5 9)))
 (let (($x2555 (= cell_5_5 8)))
 (let (($x1602 (= cell_5_5 7)))
 (let (($x3941 (= cell_5_5 6)))
 (let (($x1391 (= cell_5_5 5)))
 (let (($x6204 (= cell_5_5 4)))
 (let (($x5010 (= cell_5_5 3)))
 (let (($x8358 (= cell_5_5 2)))
 (let (($x142 (= cell_5_5 1)))
 (or $x142 $x8358 $x5010 $x6204 $x1391 $x3941 $x1602 $x2555 $x4754)))))))))))
(assert
 (let (($x2987 (= cell_6_5 9)))
 (let (($x4473 (= cell_6_5 8)))
 (let (($x2731 (= cell_6_5 7)))
 (let (($x7255 (= cell_6_5 6)))
 (let (($x2101 (= cell_6_5 5)))
 (let (($x1478 (= cell_6_5 4)))
 (let (($x2339 (= cell_6_5 3)))
 (let (($x2654 (= cell_6_5 2)))
 (let (($x9425 (= cell_6_5 1)))
 (or $x9425 $x2654 $x2339 $x1478 $x2101 $x7255 $x2731 $x4473 $x2987)))))))))))
(assert
 (let (($x9235 (= cell_7_5 9)))
 (let (($x7029 (= cell_7_5 8)))
 (let (($x1072 (= cell_7_5 7)))
 (let (($x4944 (= cell_7_5 6)))
 (let (($x792 (= cell_7_5 5)))
 (let (($x5656 (= cell_7_5 4)))
 (let (($x3498 (= cell_7_5 3)))
 (let (($x3632 (= cell_7_5 2)))
 (let (($x7384 (= cell_7_5 1)))
 (or $x7384 $x3632 $x3498 $x5656 $x792 $x4944 $x1072 $x7029 $x9235)))))))))))
(assert
 (let (($x8876 (= cell_8_5 9)))
 (let (($x7349 (= cell_8_5 8)))
 (let (($x9460 (= cell_8_5 7)))
 (let (($x1128 (= cell_8_5 6)))
 (let (($x3087 (= cell_8_5 5)))
 (let (($x9183 (= cell_8_5 4)))
 (let (($x48 (= cell_8_5 3)))
 (let (($x2480 (= cell_8_5 2)))
 (let (($x5120 (= cell_8_5 1)))
 (or $x5120 $x2480 $x48 $x9183 $x3087 $x1128 $x9460 $x7349 $x8876)))))))))))
(assert
 (let (($x10198 (= cell_9_5 9)))
 (let (($x4795 (= cell_9_5 8)))
 (let (($x1146 (= cell_9_5 7)))
 (let (($x3765 (= cell_9_5 6)))
 (let (($x10041 (= cell_9_5 5)))
 (let (($x9189 (= cell_9_5 4)))
 (let (($x1038 (= cell_9_5 3)))
 (let (($x9791 (= cell_9_5 2)))
 (let (($x3949 (= cell_9_5 1)))
 (or $x3949 $x9791 $x1038 $x9189 $x10041 $x3765 $x1146 $x4795 $x10198)))))))))))
(assert
 (let (($x9176 (= cell_1_6 9)))
 (let (($x9125 (= cell_1_6 8)))
 (let (($x3648 (= cell_1_6 7)))
 (let (($x6616 (= cell_1_6 6)))
 (let (($x3315 (= cell_1_6 5)))
 (let (($x366 (= cell_1_6 4)))
 (let (($x883 (= cell_1_6 3)))
 (let (($x9365 (= cell_1_6 2)))
 (let (($x8549 (= cell_1_6 1)))
 (or $x8549 $x9365 $x883 $x366 $x3315 $x6616 $x3648 $x9125 $x9176)))))))))))
(assert
 (let (($x9417 (= cell_2_6 9)))
 (let (($x5143 (= cell_2_6 8)))
 (let (($x639 (= cell_2_6 7)))
 (let (($x9156 (= cell_2_6 6)))
 (let (($x7054 (= cell_2_6 5)))
 (let (($x10045 (= cell_2_6 4)))
 (let (($x6203 (= cell_2_6 3)))
 (let (($x760 (= cell_2_6 2)))
 (let (($x2232 (= cell_2_6 1)))
 (or $x2232 $x760 $x6203 $x10045 $x7054 $x9156 $x639 $x5143 $x9417)))))))))))
(assert
 (let (($x1924 (= cell_3_6 9)))
 (let (($x8323 (= cell_3_6 8)))
 (let (($x6978 (= cell_3_6 7)))
 (let (($x6946 (= cell_3_6 6)))
 (let (($x2950 (= cell_3_6 5)))
 (let (($x7608 (= cell_3_6 4)))
 (let (($x1541 (= cell_3_6 3)))
 (let (($x795 (= cell_3_6 2)))
 (let (($x1935 (= cell_3_6 1)))
 (or $x1935 $x795 $x1541 $x7608 $x2950 $x6946 $x6978 $x8323 $x1924)))))))))))
(assert
 (let (($x1439 (= cell_4_6 9)))
 (let (($x2509 (= cell_4_6 8)))
 (let (($x9068 (= cell_4_6 7)))
 (let (($x9002 (= cell_4_6 6)))
 (let (($x6182 (= cell_4_6 5)))
 (let (($x9714 (= cell_4_6 4)))
 (let (($x8728 (= cell_4_6 3)))
 (let (($x7632 (= cell_4_6 2)))
 (let (($x9651 (= cell_4_6 1)))
 (or $x9651 $x7632 $x8728 $x9714 $x6182 $x9002 $x9068 $x2509 $x1439)))))))))))
(assert
 (let (($x1290 (= cell_5_6 9)))
 (let (($x9458 (= cell_5_6 8)))
 (let (($x4340 (= cell_5_6 7)))
 (let (($x8505 (= cell_5_6 6)))
 (let (($x10163 (= cell_5_6 5)))
 (let (($x9022 (= cell_5_6 4)))
 (let (($x2974 (= cell_5_6 3)))
 (let (($x5078 (= cell_5_6 2)))
 (let (($x2181 (= cell_5_6 1)))
 (or $x2181 $x5078 $x2974 $x9022 $x10163 $x8505 $x4340 $x9458 $x1290)))))))))))
(assert
 (let (($x1017 (= cell_6_6 9)))
 (let (($x6797 (= cell_6_6 8)))
 (let (($x9911 (= cell_6_6 7)))
 (let (($x4329 (= cell_6_6 6)))
 (let (($x6151 (= cell_6_6 5)))
 (let (($x8801 (= cell_6_6 4)))
 (let (($x5794 (= cell_6_6 3)))
 (let (($x495 (= cell_6_6 2)))
 (let (($x2716 (= cell_6_6 1)))
 (or $x2716 $x495 $x5794 $x8801 $x6151 $x4329 $x9911 $x6797 $x1017)))))))))))
(assert
 (let (($x3107 (= cell_7_6 9)))
 (let (($x1483 (= cell_7_6 8)))
 (let (($x8440 (= cell_7_6 7)))
 (let (($x2873 (= cell_7_6 6)))
 (let (($x6433 (= cell_7_6 5)))
 (let (($x2924 (= cell_7_6 4)))
 (let (($x6796 (= cell_7_6 3)))
 (let (($x4111 (= cell_7_6 2)))
 (let (($x7440 (= cell_7_6 1)))
 (or $x7440 $x4111 $x6796 $x2924 $x6433 $x2873 $x8440 $x1483 $x3107)))))))))))
(assert
 (let (($x6178 (= cell_8_6 9)))
 (let (($x4829 (= cell_8_6 8)))
 (let (($x4272 (= cell_8_6 7)))
 (let (($x336 (= cell_8_6 6)))
 (let (($x3480 (= cell_8_6 5)))
 (let (($x2914 (= cell_8_6 4)))
 (let (($x3486 (= cell_8_6 3)))
 (let (($x5023 (= cell_8_6 2)))
 (let (($x1405 (= cell_8_6 1)))
 (or $x1405 $x5023 $x3486 $x2914 $x3480 $x336 $x4272 $x4829 $x6178)))))))))))
(assert
 (let (($x5820 (= cell_9_6 9)))
 (let (($x7426 (= cell_9_6 8)))
 (let (($x2387 (= cell_9_6 7)))
 (let (($x5251 (= cell_9_6 6)))
 (let (($x3263 (= cell_9_6 5)))
 (let (($x5621 (= cell_9_6 4)))
 (let (($x8516 (= cell_9_6 3)))
 (let (($x2472 (= cell_9_6 2)))
 (let (($x3076 (= cell_9_6 1)))
 (or $x3076 $x2472 $x8516 $x5621 $x3263 $x5251 $x2387 $x7426 $x5820)))))))))))
(assert
 (let (($x3575 (= cell_1_7 9)))
 (let (($x8257 (= cell_1_7 8)))
 (let (($x9515 (= cell_1_7 7)))
 (let (($x7893 (= cell_1_7 6)))
 (let (($x443 (= cell_1_7 5)))
 (let (($x7320 (= cell_1_7 4)))
 (let (($x5252 (= cell_1_7 3)))
 (let (($x7577 (= cell_1_7 2)))
 (let (($x6863 (= cell_1_7 1)))
 (or $x6863 $x7577 $x5252 $x7320 $x443 $x7893 $x9515 $x8257 $x3575)))))))))))
(assert
 (let (($x5068 (= cell_2_7 9)))
 (let (($x49 (= cell_2_7 8)))
 (let (($x389 (= cell_2_7 7)))
 (let (($x4521 (= cell_2_7 6)))
 (let (($x8796 (= cell_2_7 5)))
 (let (($x9089 (= cell_2_7 4)))
 (let (($x4467 (= cell_2_7 3)))
 (let (($x10151 (= cell_2_7 2)))
 (let (($x5992 (= cell_2_7 1)))
 (or $x5992 $x10151 $x4467 $x9089 $x8796 $x4521 $x389 $x49 $x5068)))))))))))
(assert
 (let (($x5038 (= cell_3_7 9)))
 (let (($x5522 (= cell_3_7 8)))
 (let (($x7441 (= cell_3_7 7)))
 (let (($x5458 (= cell_3_7 6)))
 (let (($x8929 (= cell_3_7 5)))
 (let (($x4428 (= cell_3_7 4)))
 (let (($x1430 (= cell_3_7 3)))
 (let (($x6352 (= cell_3_7 2)))
 (let (($x3642 (= cell_3_7 1)))
 (or $x3642 $x6352 $x1430 $x4428 $x8929 $x5458 $x7441 $x5522 $x5038)))))))))))
(assert
 (let (($x4498 (= cell_4_7 9)))
 (let (($x4648 (= cell_4_7 8)))
 (let (($x6928 (= cell_4_7 7)))
 (let (($x3447 (= cell_4_7 6)))
 (let (($x8724 (= cell_4_7 5)))
 (let (($x1188 (= cell_4_7 4)))
 (let (($x1568 (= cell_4_7 3)))
 (let (($x4797 (= cell_4_7 2)))
 (let (($x4602 (= cell_4_7 1)))
 (or $x4602 $x4797 $x1568 $x1188 $x8724 $x3447 $x6928 $x4648 $x4498)))))))))))
(assert
 (let (($x8548 (= cell_5_7 9)))
 (let (($x2839 (= cell_5_7 8)))
 (let (($x2640 (= cell_5_7 7)))
 (let (($x3818 (= cell_5_7 6)))
 (let (($x4123 (= cell_5_7 5)))
 (let (($x713 (= cell_5_7 4)))
 (let (($x8699 (= cell_5_7 3)))
 (let (($x4578 (= cell_5_7 2)))
 (let (($x2046 (= cell_5_7 1)))
 (or $x2046 $x4578 $x8699 $x713 $x4123 $x3818 $x2640 $x2839 $x8548)))))))))))
(assert
 (let (($x6138 (= cell_6_7 9)))
 (let (($x4946 (= cell_6_7 8)))
 (let (($x3260 (= cell_6_7 7)))
 (let (($x6006 (= cell_6_7 6)))
 (let (($x429 (= cell_6_7 5)))
 (let (($x9680 (= cell_6_7 4)))
 (let (($x7024 (= cell_6_7 3)))
 (let (($x6216 (= cell_6_7 2)))
 (let (($x7738 (= cell_6_7 1)))
 (or $x7738 $x6216 $x7024 $x9680 $x429 $x6006 $x3260 $x4946 $x6138)))))))))))
(assert
 (let (($x5717 (= cell_7_7 9)))
 (let (($x5095 (= cell_7_7 8)))
 (let (($x1883 (= cell_7_7 7)))
 (let (($x1272 (= cell_7_7 6)))
 (let (($x968 (= cell_7_7 5)))
 (let (($x4760 (= cell_7_7 4)))
 (let (($x6592 (= cell_7_7 3)))
 (let (($x2045 (= cell_7_7 2)))
 (let (($x1788 (= cell_7_7 1)))
 (or $x1788 $x2045 $x6592 $x4760 $x968 $x1272 $x1883 $x5095 $x5717)))))))))))
(assert
 (let (($x9314 (= cell_8_7 9)))
 (let (($x5182 (= cell_8_7 8)))
 (let (($x7088 (= cell_8_7 7)))
 (let (($x881 (= cell_8_7 6)))
 (let (($x8398 (= cell_8_7 5)))
 (let (($x3678 (= cell_8_7 4)))
 (let (($x2100 (= cell_8_7 3)))
 (let (($x6464 (= cell_8_7 2)))
 (let (($x4706 (= cell_8_7 1)))
 (or $x4706 $x6464 $x2100 $x3678 $x8398 $x881 $x7088 $x5182 $x9314)))))))))))
(assert
 (let (($x1767 (= cell_9_7 9)))
 (let (($x1226 (= cell_9_7 8)))
 (let (($x5994 (= cell_9_7 7)))
 (let (($x279 (= cell_9_7 6)))
 (let (($x8985 (= cell_9_7 5)))
 (let (($x9435 (= cell_9_7 4)))
 (let (($x2096 (= cell_9_7 3)))
 (let (($x9608 (= cell_9_7 2)))
 (let (($x7069 (= cell_9_7 1)))
 (or $x7069 $x9608 $x2096 $x9435 $x8985 $x279 $x5994 $x1226 $x1767)))))))))))
(assert
 (let (($x1915 (= cell_1_8 9)))
 (let (($x8032 (= cell_1_8 8)))
 (let (($x10049 (= cell_1_8 7)))
 (let (($x8964 (= cell_1_8 6)))
 (let (($x2777 (= cell_1_8 5)))
 (let (($x6258 (= cell_1_8 4)))
 (let (($x1500 (= cell_1_8 3)))
 (let (($x3192 (= cell_1_8 2)))
 (let (($x7175 (= cell_1_8 1)))
 (or $x7175 $x3192 $x1500 $x6258 $x2777 $x8964 $x10049 $x8032 $x1915)))))))))))
(assert
 (let (($x2404 (= cell_2_8 9)))
 (let (($x4748 (= cell_2_8 8)))
 (let (($x6593 (= cell_2_8 7)))
 (let (($x214 (= cell_2_8 6)))
 (let (($x1120 (= cell_2_8 5)))
 (let (($x3084 (= cell_2_8 4)))
 (let (($x2878 (= cell_2_8 3)))
 (let (($x9616 (= cell_2_8 2)))
 (let (($x2857 (= cell_2_8 1)))
 (or $x2857 $x9616 $x2878 $x3084 $x1120 $x214 $x6593 $x4748 $x2404)))))))))))
(assert
 (let (($x1691 (= cell_3_8 9)))
 (let (($x7703 (= cell_3_8 8)))
 (let (($x8022 (= cell_3_8 7)))
 (let (($x1039 (= cell_3_8 6)))
 (let (($x8014 (= cell_3_8 5)))
 (let (($x941 (= cell_3_8 4)))
 (let (($x3500 (= cell_3_8 3)))
 (let (($x3025 (= cell_3_8 2)))
 (let (($x774 (= cell_3_8 1)))
 (or $x774 $x3025 $x3500 $x941 $x8014 $x1039 $x8022 $x7703 $x1691)))))))))))
(assert
 (let (($x2081 (= cell_4_8 9)))
 (let (($x2205 (= cell_4_8 8)))
 (let (($x2817 (= cell_4_8 7)))
 (let (($x4480 (= cell_4_8 6)))
 (let (($x7400 (= cell_4_8 5)))
 (let (($x8023 (= cell_4_8 4)))
 (let (($x2545 (= cell_4_8 3)))
 (let (($x8377 (= cell_4_8 2)))
 (let (($x9819 (= cell_4_8 1)))
 (or $x9819 $x8377 $x2545 $x8023 $x7400 $x4480 $x2817 $x2205 $x2081)))))))))))
(assert
 (let (($x7579 (= cell_5_8 9)))
 (let (($x5370 (= cell_5_8 8)))
 (let (($x6730 (= cell_5_8 7)))
 (let (($x6554 (= cell_5_8 6)))
 (let (($x407 (= cell_5_8 5)))
 (let (($x4184 (= cell_5_8 4)))
 (let (($x3868 (= cell_5_8 3)))
 (let (($x9463 (= cell_5_8 2)))
 (let (($x3959 (= cell_5_8 1)))
 (or $x3959 $x9463 $x3868 $x4184 $x407 $x6554 $x6730 $x5370 $x7579)))))))))))
(assert
 (let (($x6918 (= cell_6_8 9)))
 (let (($x2795 (= cell_6_8 8)))
 (let (($x6235 (= cell_6_8 7)))
 (let (($x8497 (= cell_6_8 6)))
 (let (($x3727 (= cell_6_8 5)))
 (let (($x7681 (= cell_6_8 4)))
 (let (($x6403 (= cell_6_8 3)))
 (let (($x8685 (= cell_6_8 2)))
 (let (($x6130 (= cell_6_8 1)))
 (or $x6130 $x8685 $x6403 $x7681 $x3727 $x8497 $x6235 $x2795 $x6918)))))))))))
(assert
 (let (($x5313 (= cell_7_8 9)))
 (let (($x1266 (= cell_7_8 8)))
 (let (($x5502 (= cell_7_8 7)))
 (let (($x2687 (= cell_7_8 6)))
 (let (($x4518 (= cell_7_8 5)))
 (let (($x813 (= cell_7_8 4)))
 (let (($x9135 (= cell_7_8 3)))
 (let (($x1802 (= cell_7_8 2)))
 (let (($x7465 (= cell_7_8 1)))
 (or $x7465 $x1802 $x9135 $x813 $x4518 $x2687 $x5502 $x1266 $x5313)))))))))))
(assert
 (let (($x8463 (= cell_8_8 9)))
 (let (($x4552 (= cell_8_8 8)))
 (let (($x5105 (= cell_8_8 7)))
 (let (($x8690 (= cell_8_8 6)))
 (let (($x4486 (= cell_8_8 5)))
 (let (($x5021 (= cell_8_8 4)))
 (let (($x3634 (= cell_8_8 3)))
 (let (($x10076 (= cell_8_8 2)))
 (let (($x634 (= cell_8_8 1)))
 (or $x634 $x10076 $x3634 $x5021 $x4486 $x8690 $x5105 $x4552 $x8463)))))))))))
(assert
 (let (($x3820 (= cell_9_8 9)))
 (let (($x4674 (= cell_9_8 8)))
 (let (($x1175 (= cell_9_8 7)))
 (let (($x8395 (= cell_9_8 6)))
 (let (($x5735 (= cell_9_8 5)))
 (let (($x184 (= cell_9_8 4)))
 (let (($x3377 (= cell_9_8 3)))
 (let (($x6309 (= cell_9_8 2)))
 (let (($x9621 (= cell_9_8 1)))
 (or $x9621 $x6309 $x3377 $x184 $x5735 $x8395 $x1175 $x4674 $x3820)))))))))))
(assert
 (let (($x3333 (= cell_1_9 9)))
 (let (($x2769 (= cell_1_9 8)))
 (let (($x6739 (= cell_1_9 7)))
 (let (($x8114 (= cell_1_9 6)))
 (let (($x5107 (= cell_1_9 5)))
 (let (($x4863 (= cell_1_9 4)))
 (let (($x7768 (= cell_1_9 3)))
 (let (($x982 (= cell_1_9 2)))
 (let (($x2633 (= cell_1_9 1)))
 (or $x2633 $x982 $x7768 $x4863 $x5107 $x8114 $x6739 $x2769 $x3333)))))))))))
(assert
 (let (($x2004 (= cell_2_9 9)))
 (let (($x5151 (= cell_2_9 8)))
 (let (($x4636 (= cell_2_9 7)))
 (let (($x2433 (= cell_2_9 6)))
 (let (($x8635 (= cell_2_9 5)))
 (let (($x6385 (= cell_2_9 4)))
 (let (($x10046 (= cell_2_9 3)))
 (let (($x8524 (= cell_2_9 2)))
 (let (($x7915 (= cell_2_9 1)))
 (or $x7915 $x8524 $x10046 $x6385 $x8635 $x2433 $x4636 $x5151 $x2004)))))))))))
(assert
 (let (($x10214 (= cell_3_9 9)))
 (let (($x7921 (= cell_3_9 8)))
 (let (($x4650 (= cell_3_9 7)))
 (let (($x4909 (= cell_3_9 6)))
 (let (($x6998 (= cell_3_9 5)))
 (let (($x3629 (= cell_3_9 4)))
 (let (($x7624 (= cell_3_9 3)))
 (let (($x2231 (= cell_3_9 2)))
 (let (($x4241 (= cell_3_9 1)))
 (or $x4241 $x2231 $x7624 $x3629 $x6998 $x4909 $x4650 $x7921 $x10214)))))))))))
(assert
 (let (($x3584 (= cell_4_9 9)))
 (let (($x7271 (= cell_4_9 8)))
 (let (($x8818 (= cell_4_9 7)))
 (let (($x1308 (= cell_4_9 6)))
 (let (($x1303 (= cell_4_9 5)))
 (let (($x4615 (= cell_4_9 4)))
 (let (($x5559 (= cell_4_9 3)))
 (let (($x3680 (= cell_4_9 2)))
 (let (($x6361 (= cell_4_9 1)))
 (or $x6361 $x3680 $x5559 $x4615 $x1303 $x1308 $x8818 $x7271 $x3584)))))))))))
(assert
 (let (($x5782 (= cell_5_9 9)))
 (let (($x7981 (= cell_5_9 8)))
 (let (($x4881 (= cell_5_9 7)))
 (let (($x1052 (= cell_5_9 6)))
 (let (($x4885 (= cell_5_9 5)))
 (let (($x2169 (= cell_5_9 4)))
 (let (($x9546 (= cell_5_9 3)))
 (let (($x8301 (= cell_5_9 2)))
 (let (($x526 (= cell_5_9 1)))
 (or $x526 $x8301 $x9546 $x2169 $x4885 $x1052 $x4881 $x7981 $x5782)))))))))))
(assert
 (let (($x4730 (= cell_6_9 9)))
 (let (($x580 (= cell_6_9 8)))
 (let (($x490 (= cell_6_9 7)))
 (let (($x5446 (= cell_6_9 6)))
 (let (($x7869 (= cell_6_9 5)))
 (let (($x2703 (= cell_6_9 4)))
 (let (($x8090 (= cell_6_9 3)))
 (let (($x7542 (= cell_6_9 2)))
 (let (($x1352 (= cell_6_9 1)))
 (or $x1352 $x7542 $x8090 $x2703 $x7869 $x5446 $x490 $x580 $x4730)))))))))))
(assert
 (let (($x4848 (= cell_7_9 9)))
 (let (($x4006 (= cell_7_9 8)))
 (let (($x5891 (= cell_7_9 7)))
 (let (($x1977 (= cell_7_9 6)))
 (let (($x4839 (= cell_7_9 5)))
 (let (($x3823 (= cell_7_9 4)))
 (let (($x6892 (= cell_7_9 3)))
 (let (($x1897 (= cell_7_9 2)))
 (let (($x3062 (= cell_7_9 1)))
 (or $x3062 $x1897 $x6892 $x3823 $x4839 $x1977 $x5891 $x4006 $x4848)))))))))))
(assert
 (let (($x9335 (= cell_8_9 9)))
 (let (($x1037 (= cell_8_9 8)))
 (let (($x4130 (= cell_8_9 7)))
 (let (($x5881 (= cell_8_9 6)))
 (let (($x6887 (= cell_8_9 5)))
 (let (($x117 (= cell_8_9 4)))
 (let (($x497 (= cell_8_9 3)))
 (let (($x9379 (= cell_8_9 2)))
 (let (($x4437 (= cell_8_9 1)))
 (or $x4437 $x9379 $x497 $x117 $x6887 $x5881 $x4130 $x1037 $x9335)))))))))))
(assert
 (let (($x6827 (= cell_9_9 9)))
 (let (($x1732 (= cell_9_9 8)))
 (let (($x9370 (= cell_9_9 7)))
 (let (($x9605 (= cell_9_9 6)))
 (let (($x8741 (= cell_9_9 5)))
 (let (($x5984 (= cell_9_9 4)))
 (let (($x2634 (= cell_9_9 3)))
 (let (($x9764 (= cell_9_9 2)))
 (let (($x8286 (= cell_9_9 1)))
 (or $x8286 $x9764 $x2634 $x5984 $x8741 $x9605 $x9370 $x1732 $x6827)))))))))))
(assert
 (and (distinct cell_1_1 cell_1_2 cell_1_3 cell_1_4 cell_1_5 cell_1_6 cell_1_7 cell_1_8 cell_1_9) true))
(assert
 (and (distinct cell_2_1 cell_2_2 cell_2_3 cell_2_4 cell_2_5 cell_2_6 cell_2_7 cell_2_8 cell_2_9) true))
(assert
 (and (distinct cell_3_1 cell_3_2 cell_3_3 cell_3_4 cell_3_5 cell_3_6 cell_3_7 cell_3_8 cell_3_9) true))
(assert
 (and (distinct cell_4_1 cell_4_2 cell_4_3 cell_4_4 cell_4_5 cell_4_6 cell_4_7 cell_4_8 cell_4_9) true))
(assert
 (and (distinct cell_5_1 cell_5_2 cell_5_3 cell_5_4 cell_5_5 cell_5_6 cell_5_7 cell_5_8 cell_5_9) true))
(assert
 (and (distinct cell_6_1 cell_6_2 cell_6_3 cell_6_4 cell_6_5 cell_6_6 cell_6_7 cell_6_8 cell_6_9) true))
(assert
 (and (distinct cell_7_1 cell_7_2 cell_7_3 cell_7_4 cell_7_5 cell_7_6 cell_7_7 cell_7_8 cell_7_9) true))
(assert
 (and (distinct cell_8_1 cell_8_2 cell_8_3 cell_8_4 cell_8_5 cell_8_6 cell_8_7 cell_8_8 cell_8_9) true))
(assert
 (and (distinct cell_9_1 cell_9_2 cell_9_3 cell_9_4 cell_9_5 cell_9_6 cell_9_7 cell_9_8 cell_9_9) true))
(assert
 (and (distinct cell_1_1 cell_2_1 cell_3_1 cell_4_1 cell_5_1 cell_6_1 cell_7_1 cell_8_1 cell_9_1) true))
(assert
 (and (distinct cell_1_2 cell_2_2 cell_3_2 cell_4_2 cell_5_2 cell_6_2 cell_7_2 cell_8_2 cell_9_2) true))
(assert
 (and (distinct cell_1_3 cell_2_3 cell_3_3 cell_4_3 cell_5_3 cell_6_3 cell_7_3 cell_8_3 cell_9_3) true))
(assert
 (and (distinct cell_1_4 cell_2_4 cell_3_4 cell_4_4 cell_5_4 cell_6_4 cell_7_4 cell_8_4 cell_9_4) true))
(assert
 (and (distinct cell_1_5 cell_2_5 cell_3_5 cell_4_5 cell_5_5 cell_6_5 cell_7_5 cell_8_5 cell_9_5) true))
(assert
 (and (distinct cell_1_6 cell_2_6 cell_3_6 cell_4_6 cell_5_6 cell_6_6 cell_7_6 cell_8_6 cell_9_6) true))
(assert
 (and (distinct cell_1_7 cell_2_7 cell_3_7 cell_4_7 cell_5_7 cell_6_7 cell_7_7 cell_8_7 cell_9_7) true))
(assert
 (and (distinct cell_1_8 cell_2_8 cell_3_8 cell_4_8 cell_5_8 cell_6_8 cell_7_8 cell_8_8 cell_9_8) true))
(assert
 (and (distinct cell_1_9 cell_2_9 cell_3_9 cell_4_9 cell_5_9 cell_6_9 cell_7_9 cell_8_9 cell_9_9) true))
(assert
 (and (distinct cell_1_1 cell_1_2 cell_1_3 cell_2_1 cell_2_2 cell_2_3 cell_3_1 cell_3_2 cell_3_3) true))
(assert
 (and (distinct cell_1_4 cell_1_5 cell_1_6 cell_2_4 cell_2_5 cell_2_6 cell_3_4 cell_3_5 cell_3_6) true))
(assert
 (and (distinct cell_1_7 cell_1_8 cell_1_9 cell_2_7 cell_2_8 cell_2_9 cell_3_7 cell_3_8 cell_3_9) true))
(assert
 (and (distinct cell_4_1 cell_4_2 cell_4_3 cell_5_1 cell_5_2 cell_5_3 cell_6_1 cell_6_2 cell_6_3) true))
(assert
 (and (distinct cell_4_4 cell_4_5 cell_4_6 cell_5_4 cell_5_5 cell_5_6 cell_6_4 cell_6_5 cell_6_6) true))
(assert
 (and (distinct cell_4_7 cell_4_8 cell_4_9 cell_5_7 cell_5_8 cell_5_9 cell_6_7 cell_6_8 cell_6_9) true))
(assert
 (and (distinct cell_7_1 cell_7_2 cell_7_3 cell_8_1 cell_8_2 cell_8_3 cell_9_1 cell_9_2 cell_9_3) true))
(assert
 (and (distinct cell_7_4 cell_7_5 cell_7_6 cell_8_4 cell_8_5 cell_8_6 cell_9_4 cell_9_5 cell_9_6) true))
(assert
 (and (distinct cell_7_7 cell_7_8 cell_7_9 cell_8_7 cell_8_8 cell_8_9 cell_9_7 cell_9_8 cell_9_9) true))
(assert
 (let (($x7530 (and (distinct cell_5_9 cell_6_8 cell_7_7 cell_8_6) true)))
 (let (($x695 (and (distinct cell_2_9 cell_3_8 cell_4_7 cell_5_6 cell_6_5 cell_7_4 cell_8_3 cell_9_2) true)))
 (let (($x1939 (and (distinct cell_1_8 cell_2_7 cell_3_6 cell_4_5 cell_5_4 cell_6_3 cell_7_2 cell_8_1) true)))
 (let (($x5185 (and (distinct cell_1_5 cell_2_4 cell_3_3 cell_4_2) true)))
 (let (($x5824 (and (distinct cell_5_1 cell_6_2 cell_7_3 cell_8_4) true)))
 (let (($x1298 (and (distinct cell_2_1 cell_3_2 cell_4_3 cell_5_4 cell_6_5 cell_7_6 cell_8_7 cell_9_8) true)))
 (let (($x2875 (and (distinct cell_1_2 cell_2_3 cell_3_4 cell_4_5 cell_5_6 cell_6_7 cell_7_8 cell_8_9) true)))
 (let (($x2944 (and (distinct cell_1_5 cell_2_6 cell_3_7 cell_4_8) true)))
 (and $x2944 $x2875 $x1298 $x5824 $x5185 $x1939 $x695 $x7530))))))))))
(assert
 (= cell_1_5 1))
(assert
 (= cell_2_1 1))
(assert
 (= cell_3_8 1))
(assert
 (= cell_4_9 1))
(assert
 (= cell_5_3 1))
(assert
 (= cell_6_4 1))
(assert
 (= cell_7_2 1))
(assert
 (= cell_8_6 1))
(assert
 (= cell_9_7 1))
(assert
 (= cell_1_8 2))
(assert
 (= cell_2_2 2))
(assert
 (= cell_3_5 2))
(assert
 (= cell_4_1 2))
(assert
 (= cell_5_6 2))
(assert
 (= cell_6_9 2))
(assert
 (= cell_7_7 2))
(assert
 (= cell_8_4 2))
(assert
 (= cell_9_3 2))
(assert
 (= cell_1_3 3))
(assert
 (= cell_2_5 3))
(assert
 (= cell_3_9 3))
(check-sat)

